objective value:                                   -3
t_n_14                                              1 	(obj:-1)
t_n_829                                             1 	(obj:-1)
t_n_1174                                            1 	(obj:-1)
